p cnf 48 54
-1 43 0 
-2 43 0 
-2 44 0 
-1 44 0 
-3 43 0 
-3 44 0 
-4 -5 18 37 -6 10 -7 9 -8 45 0 
-9 7 -10 6 45 0 
-11 46 0 
-12 43 0 
-12 44 0 
-13 43 0 
-14 -13 44 0 
-13 44 0 
-15 -12 44 0 
-16 44 0 
-17 43 0 
-18 5 37 43 0 
-19 44 0 
-19 43 0 
-20 43 0 
-21 44 0 
-22 44 0 
-23 43 0 
-24 47 0 
-25 48 0 
-26 -27 43 0 
-17 44 0 
-28 -25 -12 43 0 
-8 43 0 
-12 -29 30 44 0 
-2 -30 29 44 0 
-14 -31 -22 44 0 
-12 -32 48 0 
-33 48 0 
-34 47 0 
-13 48 0 
-16 47 0 
-13 47 0 
-34 48 0 
-35 44 0 
-35 43 0 
-33 47 0 
-36 48 0 
-23 44 0 
-37 5 18 -38 45 0 
-12 -39 44 0 
-34 43 0 
-40 44 0 
-12 -41 48 0 
-12 48 0 
-42 47 0 
-31 47 0 
-31 48 0 
